p cnf 7230 16
4692 5168 5475 0
-4674 -5158 5471 0
4664 5176 5469 0
-4692 -5476 0
4674 -5472 0
-4664 -5470 0
-5475 5476 0
5473 5474 0
5166 -5474 0
-5166 -5473 0
-5471 5472 0
-5469 5470 0
-5168 -5476 0
5158 -5472 0
-5176 -5470 0
5467 5468 0
